param W_CLASS:=
1 -0.011076430951927743
2 -0.002994168304406389
3 0
4 0
5 0
6 0.39392887466163456
7 0.14841456711963114
8 -0.24470041818431268
9 -0.06041105042194998
10 0
11 -0.1808961344934632
12 -10.464533396868763
13 0
14 0
15 0
16 0.28974933069748204
17 10.566364593950562
18 5.535981223487253
19 -24.628270115744385;

param B_CLASS:= 54.057944278933434 ;